275 5
10 10 10 10 10 

0 0 0 0 0 0 4 2 14 26 38 
0 0 0 0 0 0 1 3 
9 0 0 1 0 0 1 4 
8 0 0 10 0 0 2 8 5 
4 0 0 3 0 0 1 6 
7 0 0 8 0 0 2 9 7 
6 0 0 6 0 0 2 11 10 
1 0 0 5 0 0 1 9 
5 0 0 5 0 0 1 11 
1 0 0 3 0 0 2 12 237 
4 0 0 3 0 0 1 13 
5 0 0 6 0 0 1 13 
0 0 0 0 0 0 1 50 
0 0 0 0 0 0 1 15 
5 0 0 0 0 1 3 24 21 16 
7 0 0 0 0 8 1 17 
3 0 0 0 0 9 2 23 18 
2 0 0 0 0 5 1 19 
7 0 0 0 0 4 2 20 244 
6 0 0 0 0 8 1 22 
1 0 0 0 0 3 1 22 
9 0 0 0 0 5 1 25 
3 0 0 0 0 5 1 25 
3 0 0 0 0 2 1 25 
0 0 0 0 0 0 1 50 
0 0 0 0 0 0 2 27 28 
1 0 0 0 4 0 2 32 29 
2 0 0 0 3 0 1 29 
5 0 0 0 4 0 1 30 
4 0 0 0 7 0 1 31 
6 0 0 0 4 0 1 33 
8 0 0 0 3 0 1 33 
1 0 0 0 9 0 2 36 34 
1 0 0 0 3 0 2 35 155 
8 0 0 0 10 0 1 37 
1 0 0 0 3 0 1 37 
0 0 0 0 0 0 1 50 
0 0 0 0 0 0 2 39 43 
8 0 0 0 0 1 2 42 40 
3 0 0 0 0 7 2 41 177 
6 0 0 0 0 9 2 47 44 
10 0 0 0 0 5 2 47 46 
2 0 0 0 0 2 2 47 46 
10 0 0 0 0 9 1 45 
10 0 0 0 0 5 1 46 
6 0 0 0 0 2 1 48 
10 0 0 0 0 8 1 48 
6 0 0 0 0 2 1 49 
0 0 0 0 0 0 1 50 
0 0 0 0 0 0 4 51 63 75 87 
0 0 0 0 0 0 2 52 54 
6 0 1 0 0 0 3 59 56 53 
4 0 5 0 0 0 1 55 
1 0 5 0 0 0 2 59 58 
2 0 10 0 0 0 2 57 179 
6 0 3 0 0 0 1 57 
7 0 5 0 0 0 1 58 
10 0 5 0 0 0 1 60 
9 0 5 0 0 0 1 60 
9 0 6 0 0 0 1 61 
1 0 5 0 0 0 1 62 
0 0 0 0 0 0 1 99 
0 0 0 0 0 0 2 64 67 
3 0 0 1 0 0 1 65 
9 0 0 3 0 0 1 66 
7 0 0 6 0 0 2 69 68 
4 0 0 6 0 0 1 68 
6 0 0 5 0 0 1 70 
1 0 0 9 0 0 1 70 
8 0 0 3 0 0 1 71 
7 0 0 3 0 0 2 73 72 
2 0 0 6 0 0 2 74 182 
9 0 0 8 0 0 1 74 
0 0 0 0 0 0 1 99 
0 0 0 0 0 0 3 76 82 85 
4 1 0 0 0 0 2 84 77 
10 3 0 0 0 0 1 78 
9 7 0 0 0 0 1 79 
8 7 0 0 0 0 2 80 113 
3 10 0 0 0 0 1 81 
10 3 0 0 0 0 1 83 
6 4 0 0 0 0 1 83 
9 8 0 0 0 0 1 86 
6 5 0 0 0 0 1 86 
4 2 0 0 0 0 1 86 
0 0 0 0 0 0 1 99 
0 0 0 0 0 0 2 88 89 
3 1 0 0 0 0 2 92 90 
6 6 0 0 0 0 2 92 91 
2 3 0 0 0 0 1 91 
6 7 0 0 0 0 1 93 
10 1 0 0 0 0 1 93 
3 7 0 0 0 0 2 96 94 
3 6 0 0 0 0 2 95 212 
5 5 0 0 0 0 1 97 
8 7 0 0 0 0 1 97 
8 7 0 0 0 0 1 98 
0 0 0 0 0 0 1 99 
0 0 0 0 0 0 4 100 112 124 136 
0 0 0 0 0 0 3 101 102 104 
10 0 0 0 1 0 1 103 
10 0 0 0 5 0 1 103 
1 0 0 0 3 0 1 105 
10 0 0 0 5 0 1 105 
3 0 0 0 6 0 1 106 
3 0 0 0 8 0 1 107 
4 0 0 0 5 0 2 110 108 
6 0 0 0 5 0 2 109 269 
4 0 0 0 3 0 1 111 
1 0 0 0 9 0 1 111 
0 0 0 0 0 0 1 148 
0 0 0 0 0 0 2 113 115 
3 0 0 0 0 1 2 116 114 
5 0 0 0 0 3 3 122 117 205 
6 0 0 0 0 9 1 116 
3 0 0 0 0 5 1 117 
7 0 0 0 0 4 1 118 
7 0 0 0 0 9 1 119 
7 0 0 0 0 4 1 120 
6 0 0 0 0 5 1 121 
5 0 0 0 0 6 1 123 
8 0 0 0 0 4 1 123 
0 0 0 0 0 0 1 148 
0 0 0 0 0 0 1 125 
8 1 0 0 0 0 2 131 126 
8 9 0 0 0 0 2 134 127 
2 5 0 0 0 0 1 128 
2 4 0 0 0 0 1 129 
2 5 0 0 0 0 1 130 
5 4 0 0 0 0 2 133 132 
7 3 0 0 0 0 1 132 
4 5 0 0 0 0 2 135 176 
9 5 0 0 0 0 1 135 
5 9 0 0 0 0 1 135 
0 0 0 0 0 0 1 148 
0 0 0 0 0 0 2 137 142 
7 0 0 0 0 1 3 146 144 138 
3 0 0 0 0 5 1 139 
9 0 0 0 0 7 1 140 
8 0 0 0 0 3 1 141 
4 0 0 0 0 7 1 143 
1 0 0 0 0 6 1 143 
6 0 0 0 0 3 1 145 
10 0 0 0 0 8 1 145 
7 0 0 0 0 5 2 147 245 
9 0 0 0 0 5 1 147 
0 0 0 0 0 0 1 148 
0 0 0 0 0 0 4 149 171 193 215 
0 0 0 0 0 0 3 150 165 169 
3 1 2 0 0 0 2 168 151 
5 4 2 0 0 0 2 152 200 
4 7 3 0 0 0 1 153 
5 1 4 0 0 0 1 154 
8 8 4 0 0 0 2 167 155 
10 6 6 0 0 0 2 162 156 
10 5 4 0 0 0 1 157 
5 6 9 0 0 0 1 158 
7 2 3 0 0 0 1 159 
2 3 5 0 0 0 1 160 
3 4 4 0 0 0 1 161 
5 3 10 0 0 0 1 163 
3 8 8 0 0 0 1 163 
3 5 5 0 0 0 1 164 
4 6 6 0 0 0 1 166 
9 7 4 0 0 0 1 166 
5 6 6 0 0 0 1 170 
10 4 7 0 0 0 1 170 
6 6 2 0 0 0 1 170 
9 8 6 0 0 0 1 170 
0 0 0 0 0 0 1 275 
0 0 0 0 0 0 1 172 
1 1 0 0 0 1 1 173 
6 2 0 0 0 5 2 176 174 
7 4 0 0 0 10 1 175 
6 5 0 0 0 5 1 177 
10 5 0 0 0 4 1 177 
4 9 0 0 0 5 1 178 
2 6 0 0 0 7 2 180 179 
7 6 0 0 0 3 1 181 
2 7 0 0 0 3 2 184 183 
10 5 0 0 0 7 1 182 
7 4 0 0 0 4 1 183 
7 3 0 0 0 2 2 188 185 
10 4 0 0 0 2 2 188 185 
7 3 0 0 0 7 3 187 186 260 
10 4 0 0 0 7 1 189 
1 10 0 0 0 6 1 189 
9 5 0 0 0 8 1 189 
6 5 0 0 0 5 1 190 
3 5 0 0 0 3 1 191 
5 7 0 0 0 6 1 192 
0 0 0 0 0 0 1 275 
0 0 0 0 0 0 1 194 
1 0 1 0 1 0 2 208 195 
8 0 4 0 5 0 2 213 196 
7 0 5 0 2 0 1 197 
10 0 2 0 6 0 2 212 198 
6 0 5 0 3 0 1 199 
10 0 5 0 6 0 1 200 
3 0 7 0 7 0 2 211 201 
7 0 8 0 6 0 1 202 
8 0 5 0 2 0 1 203 
3 0 4 0 4 0 2 210 204 
8 0 4 0 4 0 1 205 
4 0 5 0 4 0 1 206 
2 0 7 0 6 0 1 207 
7 0 4 0 6 0 1 209 
1 0 8 0 8 0 1 210 
9 0 8 0 7 0 1 214 
5 0 6 0 6 0 1 214 
7 0 3 0 6 0 1 214 
6 0 5 0 5 0 1 214 
1 0 4 0 6 0 1 214 
0 0 0 0 0 0 1 275 
0 0 0 0 0 0 1 216 
3 0 0 1 0 0 1 217 
10 0 0 7 0 0 2 220 218 
3 0 0 5 0 0 1 219 
5 0 0 8 0 0 2 223 221 
7 0 0 6 0 0 2 223 221 
3 0 0 4 0 0 2 225 222 
3 0 0 3 0 0 1 224 
6 0 0 5 0 0 1 224 
10 0 0 6 0 0 1 226 
4 0 0 5 0 0 1 226 
0 0 0 0 0 0 4 227 239 251 263 
0 0 0 0 0 0 2 228 230 
5 0 0 0 1 0 1 229 
5 0 0 0 6 0 1 231 
2 0 0 0 5 0 1 231 
1 0 0 0 4 0 1 232 
8 0 0 0 5 0 2 234 233 
4 0 0 0 4 0 2 236 235 
5 0 0 0 9 0 1 235 
5 0 0 0 4 0 1 237 
1 0 0 0 6 0 1 237 
10 0 0 0 6 0 1 238 
0 0 0 0 0 0 1 275 
0 0 0 0 0 0 2 240 243 
4 0 0 0 1 0 2 249 241 
10 0 0 0 3 0 1 242 
8 0 0 0 4 0 2 248 244 
2 0 0 0 9 0 2 248 246 
1 0 0 0 4 0 1 245 
6 0 0 0 3 0 1 246 
2 0 0 0 7 0 1 247 
1 0 0 0 4 0 1 250 
4 0 0 0 5 0 1 250 
10 0 0 0 10 0 1 250 
0 0 0 0 0 0 1 275 
0 0 0 0 0 0 2 252 253 
8 0 0 0 0 1 1 254 
9 0 0 0 0 6 1 254 
3 0 0 0 0 8 2 258 255 
2 0 0 0 0 5 1 256 
2 0 0 0 0 6 1 257 
3 0 0 0 0 5 1 259 
6 0 0 0 0 7 1 259 
3 0 0 0 0 2 2 261 260 
4 0 0 0 0 3 1 262 
1 0 0 0 0 7 1 262 
0 0 0 0 0 0 1 275 
0 0 0 0 0 0 2 264 272 
7 0 0 0 0 1 2 268 265 
10 0 0 0 0 5 2 271 266 
9 0 0 0 0 8 1 267 
6 0 0 0 0 8 1 269 
10 0 0 0 0 8 1 269 
3 0 0 0 0 3 1 270 
3 0 0 0 0 5 1 273 
3 0 0 0 0 2 1 273 
5 0 0 0 0 7 1 273 
2 0 0 0 0 3 1 274 
0 0 0 0 0 0 1 275 
0 0 0 0 0 0 0 
